(set-logic QF_SLIA)
(declare-fun var0 () String)
(assert (not (str.in_re var0 (re.++ ((_ re.loop 19 110) (re.++ (re.union (str.to_re "rA") (re.union (str.to_re "U") (re.union (str.to_re "K*s") (str.to_re "TG")))) (re.++ (re.union (str.to_re "d") (re.union (str.to_re "%") (re.union (str.to_re "A") (str.to_re "1")))) (re.++ (re.union (str.to_re "P@") (re.union (str.to_re "Yub") (re.union (str.to_re "Y@") (str.to_re ",;")))) (re.union (str.to_re "\u0022d") (re.union (str.to_re ",.") (re.union (str.to_re "5") (str.to_re "2")))))))) (re.++ ((_ re.loop 14 652) (re.++ (re.union (str.to_re "wp") (re.union (str.to_re "f:=") (re.union (str.to_re "@") (str.to_re "V_j")))) (re.++ (re.union (str.to_re "5") (re.union (str.to_re ")V") (re.union (str.to_re "1l") (str.to_re "wy")))) (re.++ (re.union (str.to_re "9TC") (re.union (str.to_re "K") (re.union (str.to_re "A") (str.to_re "O?D")))) (re.union (str.to_re ")=") (re.union (str.to_re "K)%") (re.union (str.to_re "v\u0022/") (str.to_re "vK")))))))) (re.++ ((_ re.loop 7 216) (re.++ (re.union (str.to_re "!") (re.union (str.to_re "'") (re.union (str.to_re "YE") (str.to_re "$G(")))) (re.++ (re.union (str.to_re "GF") (re.union (str.to_re "J@") (re.union (str.to_re "1") (str.to_re "!x\\")))) (re.++ (re.union (str.to_re ",") (re.union (str.to_re "tr") (re.union (str.to_re "W") (str.to_re "i,r")))) (re.union (str.to_re "`Q") (re.union (str.to_re "WU$") (re.union (str.to_re "C!") (str.to_re "yv")))))))) ((_ re.loop 20 539) (re.++ (re.union (str.to_re "Uut") (re.union (str.to_re "4O") (re.union (str.to_re "/g") (str.to_re "4_M")))) (re.++ (re.union (str.to_re "Ao") (re.union (str.to_re "0") (re.union (str.to_re "U@E") (str.to_re ">6D")))) (re.++ (re.union (str.to_re "9~") (re.union (str.to_re ">]") (re.union (str.to_re "0r") (str.to_re "C")))) (re.union (str.to_re "[2") (re.union (str.to_re "Z") (re.union (str.to_re "fSc") (str.to_re "jq6"))))))))))))))
(assert (not (str.in_re var0 (re.++ ((_ re.loop 6 293) (re.++ (re.union (str.to_re "YJ") (re.union (str.to_re "'We") (re.union (str.to_re "0") (str.to_re "6")))) (re.++ (re.union (str.to_re "?") (re.union (str.to_re "-") (re.union (str.to_re "AH") (str.to_re "6{>")))) (re.++ (re.union (str.to_re "dUz") (re.union (str.to_re "1v]") (re.union (str.to_re "*G") (str.to_re "!\u0022")))) (re.union (str.to_re "r&") (re.union (str.to_re "}w") (re.union (str.to_re "kE") (str.to_re "\\vf")))))))) (re.++ ((_ re.loop 8 263) (re.++ (re.union (str.to_re "/") (re.union (str.to_re "G") (re.union (str.to_re "P?J") (str.to_re "&V")))) (re.++ (re.union (str.to_re "~Rk") (re.union (str.to_re "Aw") (re.union (str.to_re "AXz") (str.to_re "qq")))) (re.++ (re.union (str.to_re "Ex") (re.union (str.to_re "^") (re.union (str.to_re "OW") (str.to_re "bye")))) (re.union (str.to_re "[") (re.union (str.to_re "B") (re.union (str.to_re "X2?") (str.to_re "Vt/")))))))) (re.++ ((_ re.loop 12 684) (re.++ (re.union (str.to_re "OeS") (re.union (str.to_re ",w") (re.union (str.to_re "-@") (str.to_re "Qp7")))) (re.++ (re.union (str.to_re "Kv") (re.union (str.to_re "J`X") (re.union (str.to_re "o") (str.to_re "&d")))) (re.++ (re.union (str.to_re "9,") (re.union (str.to_re "mLy") (re.union (str.to_re "&ob") (str.to_re "7")))) (re.union (str.to_re "a@e") (re.union (str.to_re "QX0") (re.union (str.to_re "(|") (str.to_re "-v|")))))))) ((_ re.loop 15 763) (re.++ (re.union (str.to_re "W*") (re.union (str.to_re "B0") (re.union (str.to_re "Nx9") (str.to_re "=")))) (re.++ (re.union (str.to_re "^!") (re.union (str.to_re "z%H") (re.union (str.to_re "M}Z") (str.to_re "S")))) (re.++ (re.union (str.to_re "6L9") (re.union (str.to_re "U4") (re.union (str.to_re "uTy") (str.to_re "@")))) (re.union (str.to_re ",~(") (re.union (str.to_re "hz") (re.union (str.to_re "qEl") (str.to_re "2"))))))))))))))
(assert (not (str.in_re var0 (re.++ (re.* re.allchar) (re.++ (re.union (str.to_re "<") (re.union (str.to_re ">") (re.union (str.to_re "'") (re.union (str.to_re "\u0022") (str.to_re "&"))))) (re.* re.allchar))))))
(assert (<= 50 (str.len var0)))
(check-sat)
(get-model)
